MLW06
Position Depot: Center
Horizon for Depot: Large
Position of customers: Mixt
Distribution of the demand: Large
Width of time windows: Wide
Distribution of the service: Small

VEHICLE 
NUMBER 	 CAPACITY 
 7 	 	 288 
 
CUSTOMER
CUST NO. 	 XCOORD.  	 YCOORD. 	 DEMAND 	 READY TIME 	 DUE DATE 	 SERVICE TIME 
 0 	 	 500 	 	 500 	 	 0 	 	 0 	 	 3593 	 	 0 
  1 	 	 176 	 	 437 	 	 11 	 	 1082 	 	 1492 	 	 67 
  2 	 	 831 	 	 416 	 	 14 	 	 26 	 	 504 	 	 67 
  3 	 	 632 	 	 908 	 	 72 	 	 1561 	 	 2001 	 	 57 
  4 	 	 826 	 	 825 	 	 96 	 	 330 	 	 770 	 	 80 
  5 	 	 54 	 	 63 	 	 27 	 	 2779 	 	 3205 	 	 80 
  6 	 	 539 	 	 619 	 	 27 	 	 2 	 	 297 	 	 64 
  7 	 	 409 	 	 79 	 	 18 	 	 1464 	 	 1864 	 	 60 
  8 	 	 540 	 	 462 	 	 4 	 	 1915 	 	 2360 	 	 93 
  9 	 	 810 	 	 377 	 	 5 	 	 2132 	 	 2394 	 	 66 
  10 	 	 119 	 	 82 	 	 20 	 	 2220 	 	 2547 	 	 90 
  11 	 	 821 	 	 808 	 	 59 	 	 2940 	 	 3276 	 	 83 
  12 	 	 566 	 	 486 	 	 4 	 	 2262 	 	 2716 	 	 81 
  13 	 	 442 	 	 101 	 	 64 	 	 2161 	 	 2647 	 	 84 
  14 	 	 338 	 	 448 	 	 23 	 	 779 	 	 1182 	 	 88 
  15 	 	 825 	 	 863 	 	 31 	 	 671 	 	 1032 	 	 83 
  16 	 	 414 	 	 184 	 	 30 	 	 1840 	 	 2328 	 	 68 
  17 	 	 50 	 	 54 	 	 60 	 	 1171 	 	 1661 	 	 87 
  18 	 	 778 	 	 941 	 	 57 	 	 590 	 	 803 	 	 98 
  19 	 	 80 	 	 44 	 	 92 	 	 2472 	 	 2897 	 	 54 
  20 	 	 790 	 	 300 	 	 59 	 	 220 	 	 446 	 	 69 
  21 	 	 33 	 	 81 	 	 78 	 	 2065 	 	 2277 	 	 65 
  22 	 	 516 	 	 530 	 	 14 	 	 492 	 	 959 	 	 90 
  23 	 	 168 	 	 463 	 	 85 	 	 1048 	 	 1305 	 	 61 
  24 	 	 15 	 	 101 	 	 23 	 	 1559 	 	 1905 	 	 51 
  25 	 	 595 	 	 503 	 	 22 	 	 828 	 	 1160 	 	 76 
  26 	 	 100 	 	 410 	 	 34 	 	 2627 	 	 2992 	 	 58 
  27 	 	 234 	 	 286 	 	 42 	 	 1688 	 	 1938 	 	 75 
  28 	 	 390 	 	 664 	 	 96 	 	 3140 	 	 3359 	 	 52 
  29 	 	 113 	 	 846 	 	 28 	 	 1210 	 	 1547 	 	 59 
  30 	 	 682 	 	 114 	 	 35 	 	 223 	 	 567 	 	 68 
  31 	 	 862 	 	 147 	 	 15 	 	 58 	 	 556 	 	 87 
  32 	 	 685 	 	 3 	 	 6 	 	 3206 	 	 3593 	 	 84 
  33 	 	 26 	 	 487 	 	 28 	 	 3161 	 	 3362 	 	 85 
  34 	 	 115 	 	 262 	 	 3 	 	 2361 	 	 2661 	 	 73 
  35 	 	 901 	 	 261 	 	 86 	 	 2716 	 	 2988 	 	 72 
  36 	 	 858 	 	 303 	 	 86 	 	 3049 	 	 3529 	 	 82 
  37 	 	 575 	 	 883 	 	 46 	 	 2413 	 	 2825 	 	 71 
  38 	 	 209 	 	 99 	 	 45 	 	 1022 	 	 1299 	 	 50 
  39 	 	 549 	 	 345 	 	 22 	 	 3235 	 	 3593 	 	 77 
  40 	 	 25 	 	 133 	 	 16 	 	 3007 	 	 3306 	 	 61 
  41 	 	 498 	 	 95 	 	 90 	 	 2820 	 	 3032 	 	 59 
  42 	 	 30 	 	 448 	 	 36 	 	 2242 	 	 2532 	 	 70 
  43 	 	 120 	 	 551 	 	 21 	 	 3159 	 	 3531 	 	 98 
  44 	 	 235 	 	 645 	 	 2 	 	 2755 	 	 3205 	 	 84 
  45 	 	 178 	 	 999 	 	 60 	 	 508 	 	 907 	 	 77 
  46 	 	 249 	 	 614 	 	 10 	 	 1058 	 	 1288 	 	 55 
  47 	 	 280 	 	 855 	 	 38 	 	 3017 	 	 3396 	 	 99 
  48 	 	 458 	 	 251 	 	 76 	 	 1959 	 	 2230 	 	 77 
  49 	 	 459 	 	 426 	 	 83 	 	 1248 	 	 1456 	 	 56 
  50 	 	 473 	 	 5 	 	 57 	 	 1689 	 	 2120 	 	 56 
 